c SAT problem
p wcnf 39 41
1 90 3150 0
1 3150 -105 0
1 -135 -3075 0
1 -135 3135 0
1 165 3075 0
1 -3060 -255 0
1 -3075 -3060 0
1 3090 -3105 0
1 -3105 150 0
1 -210 -3075 0
1 3015 -210 0
1 -3030 195 0
1 -3030 150 0
1 3045 -225 0
1 3045 -270 0
1 3045 -255 0
1 -121 -3255 0
1 -166 -151 0
1 -3255 166 0
1 3255 -3240 0
1 -3285 -121 0
1 181 -3150 0
1 181 3135 0
1 196 195 0
1 -196 3240 0
1 -196 -3150 0
1 -226 3180 0
1 226 -3090 0
1 3180 3195 0
1 -3180 285 0
1 -3195 255 0
1 -3210 -211 0
1 -3210 181 0
1 3225 3210 0
1 285 -3121 0
1 -3121 211 0
1 3121 255 0
1 -3136 -226 0
1 -3136 240 0
1 3151 -3150 0
1 3166 3151 0
